Version identifier: 20.1.0.0 | 2020-11-10 | 9bedb6d68
Tried aggregator 2 times.
MIP Presolve eliminated 2336 rows and 1121 columns.
MIP Presolve modified 6184 coefficients.
Aggregator did 255 substitutions.
Reduced MIP has 3818 rows, 3039 columns, and 12548 nonzeros.
Reduced MIP has 633 binaries, 2406 generals, 0 SOSs, and 0 indicators.
Presolve time = 0.03 sec. (14.41 ticks)
Probing fixed 80 vars, tightened 707 bounds.
Probing time = 0.01 sec. (1.46 ticks)
Tried aggregator 2 times.
Detecting symmetries...
MIP Presolve eliminated 1571 rows and 106 columns.
MIP Presolve modified 327 coefficients.
Aggregator did 18 substitutions.
Reduced MIP has 2229 rows, 2915 columns, and 7288 nonzeros.
Reduced MIP has 835 binaries, 2080 generals, 0 SOSs, and 0 indicators.
Presolve time = 0.02 sec. (10.61 ticks)
Probing time = 0.00 sec. (0.54 ticks)
Clique table members: 6.
MIP emphasis: balance optimality and feasibility.
MIP search method: dynamic search.
Parallel mode: deterministic, using up to 24 threads.
Root relaxation solution time = 0.03 sec. (10.34 ticks)

        Nodes                                         Cuts/
   Node  Left     Objective  IInf  Best Integer    Best Bound    ItCnt     Gap

      0     0        0.0000    94                      0.0000      729         
*     0+    0                           23.0000        0.0000           100.00%
      0     0        0.0000    95       23.0000     Cuts: 253     1395   56.52%
      0     0        0.0606   267       23.0000     Cuts: 183     1870   56.52%
*     0+    0                           21.0000       10.0000            52.38%
      0     0        cutoff             21.0000       21.0000     1870    0.00%
Elapsed time = 2.22 sec. (274.68 ticks, tree = 0.01 MB, solutions = 2)

Cover cuts applied:  2
Implied bound cuts applied:  80
Mixed integer rounding cuts applied:  15
Zero-half cuts applied:  70
Lift and project cuts applied:  17
Gomory fractional cuts applied:  32

Root node processing (before b&c):
  Real time             =    2.22 sec. (274.88 ticks)
Parallel b&c, 24 threads:
  Real time             =    0.00 sec. (0.00 ticks)
  Sync time (average)   =    0.00 sec.
  Wait time (average)   =    0.00 sec.
                          ------------
Total (root+branch&cut) =    2.22 sec. (274.88 ticks)

Solution status = Optimal
Solution LB = 21
Solution UB = 21
Runtime = 2.23705 seconds
	Command being timed: "/home/min/git_repos/CS598MEBProject/CNT-ILP/build/cnt -s 2 ./output/k8_n40/simC_c1_k8_n40_u3_s1_del04.input-left.cnp"
	User time (seconds): 19.51
	System time (seconds): 0.21
	Percent of CPU this job got: 863%
	Elapsed (wall clock) time (h:mm:ss or m:ss): 0:02.28
	Average shared text size (kbytes): 0
	Average unshared data size (kbytes): 0
	Average stack size (kbytes): 0
	Average total size (kbytes): 0
	Maximum resident set size (kbytes): 178836
	Average resident set size (kbytes): 0
	Major (requiring I/O) page faults: 0
	Minor (reclaiming a frame) page faults: 44236
	Voluntary context switches: 16176
	Involuntary context switches: 2386
	Swaps: 0
	File system inputs: 0
	File system outputs: 16
	Socket messages sent: 0
	Socket messages received: 0
	Signals delivered: 0
	Page size (bytes): 4096
	Exit status: 0
